47075
3 5 8 -1 500 500 500 
10 1 7 -1 500 500 500 
2
1
9 -1 40 
9 -1 40 
9 -1 40 
9 -1 40 
9 -1 40 
9 -1 40 
9 -1 40 
9 -1 40 
9 -1 40 
9 -1 40 
9 -1 40 
9 -1 40 
2 -1 40 
4 -1 40 
6 -1 40 
12 -1 40 
11 9 -1 25 15 
2 4 6 12 -1 10 10 10 10 
9 -1 5 
2
11 2 -1 25 15 
